Version identifier: 20.1.0.0 | 2020-11-10 | 9bedb6d68
Tried aggregator 2 times.
MIP Presolve eliminated 2365 rows and 1162 columns.
MIP Presolve modified 6330 coefficients.
Aggregator did 242 substitutions.
Reduced MIP has 3802 rows, 3011 columns, and 12482 nonzeros.
Reduced MIP has 573 binaries, 2438 generals, 0 SOSs, and 0 indicators.
Presolve time = 0.04 sec. (14.79 ticks)
Probing fixed 80 vars, tightened 669 bounds.
Probing time = 0.01 sec. (1.52 ticks)
Tried aggregator 2 times.
Detecting symmetries...
MIP Presolve eliminated 1560 rows and 92 columns.
MIP Presolve modified 285 coefficients.
Aggregator did 12 substitutions.
Reduced MIP has 2230 rows, 2907 columns, and 7292 nonzeros.
Reduced MIP has 723 binaries, 2184 generals, 0 SOSs, and 0 indicators.
Presolve time = 0.02 sec. (10.66 ticks)
Probing time = 0.00 sec. (0.59 ticks)
Clique table members: 5.
MIP emphasis: balance optimality and feasibility.
MIP search method: dynamic search.
Parallel mode: deterministic, using up to 24 threads.
Root relaxation solution time = 0.04 sec. (8.06 ticks)

        Nodes                                         Cuts/
   Node  Left     Objective  IInf  Best Integer    Best Bound    ItCnt     Gap

*     0+    0                           69.0000        0.0000           100.00%
      0     0        0.0000    86       69.0000        0.0000      659  100.00%
*     0+    0                           67.0000        0.0000           100.00%
      0     0        0.0000   118       67.0000     Cuts: 132      789  100.00%
      0     0        0.0000    68       67.0000      Cuts: 48     1299  100.00%
*     0+    0                           30.0000        0.0000           100.00%
*     0+    0                           13.0000        0.0000           100.00%
      0     0        0.0000    53       13.0000     Cuts: 146     1646   53.85%
      0     0        0.0286   236       13.0000      Cuts: 59     1808   53.85%
*     0+    0                           12.0000        6.0000            50.00%
      0     0        cutoff             12.0000       12.0000     1808    0.00%
Elapsed time = 1.37 sec. (328.06 ticks, tree = 0.01 MB, solutions = 5)

Implied bound cuts applied:  90
Flow cuts applied:  1
Mixed integer rounding cuts applied:  14
Zero-half cuts applied:  55
Lift and project cuts applied:  8
Gomory fractional cuts applied:  16

Root node processing (before b&c):
  Real time             =    1.38 sec. (328.35 ticks)
Parallel b&c, 24 threads:
  Real time             =    0.00 sec. (0.00 ticks)
  Sync time (average)   =    0.00 sec.
  Wait time (average)   =    0.00 sec.
                          ------------
Total (root+branch&cut) =    1.38 sec. (328.35 ticks)

Solution status = Optimal
Solution LB = 12
Solution UB = 12
Runtime = 1.3845 seconds
	Command being timed: "/home/min/git_repos/CS598MEBProject/CNT-ILP/build/cnt -s 2 ./output/k8_n40/simC_c1_k8_n40_u2_s1_del02.input-left.cnp"
	User time (seconds): 17.02
	System time (seconds): 0.22
	Percent of CPU this job got: 1211%
	Elapsed (wall clock) time (h:mm:ss or m:ss): 0:01.42
	Average shared text size (kbytes): 0
	Average unshared data size (kbytes): 0
	Average stack size (kbytes): 0
	Average total size (kbytes): 0
	Maximum resident set size (kbytes): 173764
	Average resident set size (kbytes): 0
	Major (requiring I/O) page faults: 0
	Minor (reclaiming a frame) page faults: 51731
	Voluntary context switches: 7644
	Involuntary context switches: 2104
	Swaps: 0
	File system inputs: 0
	File system outputs: 16
	Socket messages sent: 0
	Socket messages received: 0
	Signals delivered: 0
	Page size (bytes): 4096
	Exit status: 0
